Minimize
  20 x_large_cruise_ship + 15 x_small_cruise_ship
Subject To
  c1: 2000 x_large_cruise_ship + 800 x_small_cruise_ship >= 20000
  c2: x_large_cruise_ship <= 7
  c3: 0.6 x_small_cruise_ship - 0.4 x_large_cruise_ship >= 0
End